(set-logic QF_LIA)
(declare-fun x0 () Int)
(declare-fun x1 () Int)
(declare-fun x2 () Int)
(declare-fun x3 () Int)
(declare-fun x4 () Int)
(declare-fun x5 () Int)
(declare-fun x6 () Int)
(declare-fun x7 () Int)
(declare-fun x8 () Int)
(declare-fun x9 () Int)
(declare-fun A0 () Bool)
(declare-fun A1 () Bool)
(declare-fun A2 () Bool)
(declare-fun A3 () Bool)
(declare-fun A4 () Bool)
(declare-fun A5 () Bool)
(declare-fun A6 () Bool)
(declare-fun A7 () Bool)
(declare-fun A8 () Bool)
(declare-fun A9 () Bool)
(assert (let ((.def_0 (* (- 1) x8))) (let ((.def_1 (* 1 x5))) (let ((.def_2 (+ .def_1 .def_0))) (let ((.def_3 (< .def_2 1))) (let ((.def_4 (and A0 .def_3))) (let ((.def_5 (not .def_4))) (let ((.def_6 (= A4 A8))) (let ((.def_7 (and .def_6 .def_5))) (let ((.def_8 (not .def_7))) (let ((.def_9 (or A8 A7))) (let ((.def_10 (* 1 x0))) (let ((.def_11 (< .def_10 1))) (let ((.def_12 (not .def_11))) (let ((.def_13 (and .def_12 A3))) (let ((.def_14 (or .def_13 .def_9))) (let ((.def_15 (not .def_14))) (let ((.def_16 (and .def_15 .def_8))) (let ((.def_17 (not .def_16))) (let ((.def_18 (* (- 1) x2))) (let ((.def_19 (< .def_18 (- 1)))) (let ((.def_20 (and .def_19 A3))) (let ((.def_21 (or A6 A3))) (let ((.def_22 (not .def_21))) (let ((.def_23 (or .def_22 .def_20))) (let ((.def_24 (not .def_23))) (let ((.def_25 (not A8))) (let ((.def_26 (* (- 1) x7))) (let ((.def_27 (+ .def_1 .def_26))) (let ((.def_28 (< .def_27 (- 1)))) (let ((.def_29 (not .def_28))) (let ((.def_30 (and .def_29 .def_25))) (let ((.def_31 (not .def_30))) (let ((.def_32 (not A6))) (let ((.def_33 (and .def_32 A9))) (let ((.def_34 (not .def_33))) (let ((.def_35 (= .def_34 .def_31))) (let ((.def_36 (not .def_35))) (let ((.def_37 (and .def_36 .def_24))) (let ((.def_38 (and .def_37 .def_17))) (let ((.def_39 (not .def_38))) (let ((.def_40 (not A9))) (let ((.def_41 (* 1 x2))) (let ((.def_42 (* 1 x4))) (let ((.def_43 (+ .def_42 .def_41))) (let ((.def_44 (< .def_43 1))) (let ((.def_45 (and .def_44 .def_40))) (let ((.def_46 (not .def_45))) (let ((.def_47 (* 1 x1))) (let ((.def_48 (* 1 x9))) (let ((.def_49 (+ .def_48 .def_47))) (let ((.def_50 (< .def_49 1))) (let ((.def_51 (* (- 1) x3))) (let ((.def_52 (+ .def_51 .def_48))) (let ((.def_53 (< .def_52 (- 1)))) (let ((.def_54 (not .def_53))) (let ((.def_55 (or .def_54 .def_50))) (let ((.def_56 (not .def_55))) (let ((.def_57 (or .def_56 .def_46))) (let ((.def_58 (* (- 1) x5))) (let ((.def_59 (< .def_58 1))) (let ((.def_60 (= A5 .def_59))) (let ((.def_61 (not A4))) (let ((.def_62 (+ .def_10 .def_58))) (let ((.def_63 (< .def_62 1))) (let ((.def_64 (or .def_63 .def_61))) (let ((.def_65 (and .def_64 .def_60))) (let ((.def_66 (not .def_65))) (let ((.def_67 (and .def_66 .def_57))) (let ((.def_68 (not .def_67))) (let ((.def_69 (* 1 x7))) (let ((.def_70 (+ .def_41 .def_69))) (let ((.def_71 (< .def_70 1))) (let ((.def_72 (not A5))) (let ((.def_73 (or .def_72 .def_71))) (let ((.def_74 (or A7 A8))) (let ((.def_75 (and .def_74 .def_73))) (let ((.def_76 (not .def_75))) (let ((.def_77 (or .def_25 A8))) (let ((.def_78 (= A7 .def_32))) (let ((.def_79 (and .def_78 .def_77))) (let ((.def_80 (not .def_79))) (let ((.def_81 (or .def_80 .def_76))) (let ((.def_82 (or .def_81 .def_68))) (let ((.def_83 (and .def_82 .def_39))) (let ((.def_84 (not .def_83))) (let ((.def_85 (* 1 x3))) (let ((.def_86 (* (- 1) x9))) (let ((.def_87 (+ .def_86 .def_85))) (let ((.def_88 (< .def_87 1))) (let ((.def_89 (and .def_88 A0))) (let ((.def_90 (not .def_89))) (let ((.def_91 (< .def_48 (- 1)))) (let ((.def_92 (not .def_91))) (let ((.def_93 (and .def_72 .def_92))) (let ((.def_94 (or .def_93 .def_90))) (let ((.def_95 (not .def_94))) (let ((.def_96 (+ .def_0 .def_85))) (let ((.def_97 (< .def_96 (- 1)))) (let ((.def_98 (or .def_12 .def_97))) (let ((.def_99 (not .def_98))) (let ((.def_100 (< .def_41 1))) (let ((.def_101 (not .def_100))) (let ((.def_102 (not A2))) (let ((.def_103 (and .def_102 .def_101))) (let ((.def_104 (or .def_103 .def_99))) (let ((.def_105 (or .def_104 .def_95))) (let ((.def_106 (not .def_105))) (let ((.def_107 (* (- 1) x6))) (let ((.def_108 (< .def_107 1))) (let ((.def_109 (not .def_108))) (let ((.def_110 (and .def_72 .def_109))) (let ((.def_111 (not .def_110))) (let ((.def_112 (+ .def_85 .def_42))) (let ((.def_113 (< .def_112 1))) (let ((.def_114 (and A3 .def_113))) (let ((.def_115 (and .def_114 .def_111))) (let ((.def_116 (* (- 1) x0))) (let ((.def_117 (+ .def_0 .def_116))) (let ((.def_118 (< .def_117 1))) (let ((.def_119 (not .def_118))) (let ((.def_120 (or A7 .def_119))) (let ((.def_121 (< .def_116 (- 1)))) (let ((.def_122 (not A0))) (let ((.def_123 (or .def_122 .def_121))) (let ((.def_124 (not .def_123))) (let ((.def_125 (and .def_124 .def_120))) (let ((.def_126 (and .def_125 .def_115))) (let ((.def_127 (and .def_126 .def_106))) (let ((.def_128 (not .def_127))) (let ((.def_129 (+ .def_69 .def_47))) (let ((.def_130 (< .def_129 1))) (let ((.def_131 (not .def_121))) (let ((.def_132 (or .def_131 .def_130))) (let ((.def_133 (+ .def_47 .def_42))) (let ((.def_134 (< .def_133 1))) (let ((.def_135 (and .def_134 A8))) (let ((.def_136 (or .def_135 .def_132))) (let ((.def_137 (not .def_136))) (let ((.def_138 (* 1 x8))) (let ((.def_139 (+ .def_138 .def_10))) (let ((.def_140 (< .def_139 1))) (let ((.def_141 (or A4 .def_140))) (let ((.def_142 (not .def_141))) (let ((.def_143 (+ .def_47 .def_86))) (let ((.def_144 (< .def_143 1))) (let ((.def_145 (not .def_144))) (let ((.def_146 (and A4 .def_145))) (let ((.def_147 (and .def_146 .def_142))) (let ((.def_148 (and .def_147 .def_137))) (let ((.def_149 (and .def_25 A1))) (let ((.def_150 (not .def_149))) (let ((.def_151 (* (- 1) x4))) (let ((.def_152 (+ .def_107 .def_151))) (let ((.def_153 (< .def_152 1))) (let ((.def_154 (and .def_153 .def_102))) (let ((.def_155 (= .def_154 .def_150))) (let ((.def_156 (< .def_85 1))) (let ((.def_157 (< .def_26 (- 1)))) (let ((.def_158 (= .def_157 .def_156))) (let ((.def_159 (or .def_9 .def_158))) (let ((.def_160 (not .def_159))) (let ((.def_161 (and .def_160 .def_155))) (let ((.def_162 (= .def_161 .def_148))) (let ((.def_163 (not .def_162))) (let ((.def_164 (or .def_163 .def_128))) (let ((.def_165 (not .def_164))) (let ((.def_166 (and .def_165 .def_84))) (let ((.def_167 (<= x9 1))) (let ((.def_168 (<= 0 x9))) (let ((.def_169 (<= x8 1))) (let ((.def_170 (<= 0 x8))) (let ((.def_171 (<= x7 1))) (let ((.def_172 (<= 0 x7))) (let ((.def_173 (<= x6 1))) (let ((.def_174 (<= 0 x6))) (let ((.def_175 (<= x5 1))) (let ((.def_176 (<= 0 x5))) (let ((.def_177 (<= x4 1))) (let ((.def_178 (<= 0 x4))) (let ((.def_179 (<= x3 1))) (let ((.def_180 (<= 0 x3))) (let ((.def_181 (<= x2 1))) (let ((.def_182 (<= 0 x2))) (let ((.def_183 (<= x1 1))) (let ((.def_184 (<= 0 x1))) (let ((.def_185 (<= x0 1))) (let ((.def_186 (<= 0 x0))) (let ((.def_187 (and .def_186 .def_185 .def_184 .def_183 .def_182 .def_181 .def_180 .def_179 .def_178 .def_177 .def_176 .def_175 .def_174 .def_173 .def_172 .def_171 .def_170 .def_169 .def_168 .def_167 .def_166))) .def_187)))))))))))))))))))))))))))))))))))))))))))))))))))))))))))))))))))))))))))))))))))))))))))))))))))))))))))))))))))))))))))))))))))))))))))))))))))))))))))))))))))))))))))))))))))))))))))))
(check-sat)
